c A 3SAT instance whose satisfying assignment encodes the subset of [1, 2, 3] that add up to 3
c One possible solution is: [0, 0, 1]
p cnf 30 108
4 0
-5 0
-6 0
7 0
8 0
9 0
-10 0
-11 1 4 0
-11 -1 4 0
-11 1 -4 0
11 -1 -4 0
-12 1 5 0
-12 -1 5 0
-12 1 -5 0
12 -1 -5 0
-13 2 6 0
-13 -2 6 0
-13 2 -6 0
13 -2 -6 0
-14 2 7 0
-14 -2 7 0
-14 2 -7 0
14 -2 -7 0
-15 3 8 0
-15 -3 8 0
-15 3 -8 0
15 -3 -8 0
-16 3 9 0
-16 -3 9 0
-16 3 -9 0
16 -3 -9 0
-17 3 10 0
-17 -3 10 0
-17 3 -10 0
17 -3 -10 0
-18 11 0
18 -11 0
-19 12 0
19 -12 0
-20 18 13 0
20 -18 13 0
20 18 -13 0
-20 -18 -13 0
-23 18 13 0
-23 -18 13 0
-23 18 -13 0
23 -18 -13 0
-21 23 19 14 0
21 -23 19 14 0
21 23 -19 14 0
-21 -23 -19 14 0
21 23 19 -14 0
-21 -23 19 -14 0
-21 23 -19 -14 0
21 -23 -19 -14 0
-24 19 14 23 0
-24 -19 14 23 0
-24 19 -14 23 0
24 -19 -14 23 0
-24 19 14 -23 0
24 -19 14 -23 0
24 19 -14 -23 0
24 -19 -14 -23 0
-22 24 0
22 -24 0
-25 20 15 0
25 -20 15 0
25 20 -15 0
-25 -20 -15 0
-28 20 15 0
-28 -20 15 0
-28 20 -15 0
28 -20 -15 0
-26 28 21 16 0
26 -28 21 16 0
26 28 -21 16 0
-26 -28 -21 16 0
26 28 21 -16 0
-26 -28 21 -16 0
-26 28 -21 -16 0
26 -28 -21 -16 0
-29 21 16 28 0
-29 -21 16 28 0
-29 21 -16 28 0
29 -21 -16 28 0
-29 21 16 -28 0
29 -21 16 -28 0
29 21 -16 -28 0
29 -21 -16 -28 0
-27 29 22 17 0
27 -29 22 17 0
27 29 -22 17 0
-27 -29 -22 17 0
27 29 22 -17 0
-27 -29 22 -17 0
-27 29 -22 -17 0
27 -29 -22 -17 0
-30 22 17 29 0
-30 -22 17 29 0
-30 22 -17 29 0
30 -22 -17 29 0
-30 22 17 -29 0
30 -22 17 -29 0
30 22 -17 -29 0
30 -22 -17 -29 0
25 0
26 0
-27 0
